62826007009751524125011,1,1,2,07,4,1,2,013,7,1,2,015,10,1,2,05,4,1,2,09,9,1,2,09,8,1,2,08,14,1,2,011,8,1,2,07,5,1,2,07,10,1,2,02,10,1,2,01,10,1,2,04,6,1,2,06,9,1,2,06,15,1,2,02,7,1,2,03,2,1,2,02,14,1,2,013,15,1,2,015,4,1,2,08,14,1,2,07,13,1,2,02,4,1,2,05,6,1,2,05,6,1,2,07,10,1,2,01,1,1,2,05,6,1,2,03,6,1,2,08,8,1,2,05,7,1,2,05,10,1,2,08,13,1,2,04,8,1,2,07,5,1,2,013,9,1,2,012,12,1,2,014,14,1,2,011,5,1,2,06,15,1,2,011,13,1,2,08,1,1,2,05,5,1,2,06,5,1,2,014,15,1,2,012,14,1,2,07,7,1,2,015,10,1,2,012,7,1,2,0